c "122409.clq"
p edge 247 3696
e 1 17
e 1 18
e 1 19
e 1 20
e 1 22
e 1 23
e 1 24
e 1 26
e 1 29
e 1 31
e 1 34
e 1 38
e 1 39
e 1 41
e 1 42
e 1 58
e 1 61
e 1 78
e 1 82
e 1 86
e 1 90
e 1 93
e 1 134
e 1 148
e 1 172
e 1 179
e 1 186
e 1 194
e 1 196
e 1 208
e 1 226
e 2 17
e 2 19
e 2 22
e 2 26
e 2 32
e 2 38
e 2 41
e 2 63
e 2 68
e 2 70
e 2 76
e 2 77
e 2 111
e 2 121
e 2 130
e 2 133
e 2 134
e 2 140
e 2 163
e 2 170
e 2 181
e 2 219
e 2 238
e 3 17
e 3 18
e 3 19
e 3 20
e 3 21
e 3 22
e 3 23
e 3 24
e 3 26
e 3 34
e 3 36
e 3 37
e 3 45
e 3 46
e 3 56
e 3 72
e 3 76
e 3 89
e 3 93
e 3 119
e 3 120
e 3 121
e 3 127
e 3 132
e 3 147
e 3 155
e 3 192
e 3 202
e 3 208
e 3 234
e 3 237
e 3 240
e 4 17
e 4 18
e 4 19
e 4 20
e 4 21
e 4 22
e 4 23
e 4 26
e 4 27
e 4 28
e 4 29
e 4 33
e 4 35
e 4 37
e 4 42
e 4 43
e 4 44
e 4 46
e 4 47
e 4 51
e 4 54
e 4 57
e 4 60
e 4 63
e 4 64
e 4 66
e 4 67
e 4 73
e 4 74
e 4 81
e 4 108
e 4 142
e 4 144
e 4 150
e 4 152
e 4 163
e 4 182
e 4 200
e 4 201
e 4 212
e 4 231
e 4 237
e 4 239
e 5 17
e 5 18
e 5 19
e 5 20
e 5 21
e 5 22
e 5 23
e 5 24
e 5 25
e 5 26
e 5 27
e 5 30
e 5 34
e 5 39
e 5 46
e 5 47
e 5 61
e 5 71
e 5 74
e 5 76
e 5 78
e 5 81
e 5 85
e 5 98
e 5 101
e 5 112
e 5 114
e 5 115
e 5 122
e 5 125
e 5 128
e 5 151
e 5 172
e 5 180
e 5 195
e 5 198
e 5 218
e 5 227
e 5 245
e 5 247
e 6 17
e 6 18
e 6 19
e 6 20
e 6 21
e 6 22
e 6 23
e 6 25
e 6 27
e 6 28
e 6 34
e 6 42
e 6 48
e 6 52
e 6 58
e 6 62
e 6 72
e 6 75
e 6 80
e 6 81
e 6 90
e 6 95
e 6 117
e 6 132
e 6 134
e 6 146
e 6 157
e 6 162
e 6 170
e 6 174
e 6 200
e 6 217
e 6 219
e 6 232
e 6 236
e 7 17
e 7 18
e 7 19
e 7 20
e 7 21
e 7 22
e 7 23
e 7 24
e 7 25
e 7 28
e 7 29
e 7 31
e 7 36
e 7 37
e 7 43
e 7 45
e 7 46
e 7 49
e 7 54
e 7 56
e 7 58
e 7 66
e 7 68
e 7 70
e 7 79
e 7 82
e 7 83
e 7 84
e 7 87
e 7 88
e 7 90
e 7 94
e 7 100
e 7 103
e 7 108
e 7 113
e 7 116
e 7 117
e 7 120
e 7 122
e 7 125
e 7 126
e 7 130
e 7 148
e 7 151
e 7 156
e 7 159
e 7 162
e 7 167
e 7 169
e 7 171
e 7 183
e 7 185
e 7 188
e 7 191
e 7 192
e 7 211
e 7 219
e 7 228
e 7 231
e 7 238
e 7 240
e 7 245
e 8 17
e 8 18
e 8 19
e 8 20
e 8 24
e 8 26
e 8 31
e 8 35
e 8 38
e 8 39
e 8 47
e 8 50
e 8 53
e 8 60
e 8 66
e 8 75
e 8 79
e 8 116
e 8 119
e 8 134
e 8 158
e 8 164
e 8 165
e 8 184
e 8 207
e 8 209
e 8 223
e 8 227
e 9 17
e 9 18
e 9 21
e 9 23
e 9 24
e 9 27
e 9 28
e 9 30
e 9 31
e 9 33
e 9 35
e 9 43
e 9 48
e 9 65
e 9 72
e 9 75
e 9 105
e 9 112
e 9 119
e 9 126
e 9 132
e 9 180
e 9 199
e 9 213
e 9 217
e 9 228
e 9 244
e 10 17
e 10 18
e 10 19
e 10 20
e 10 21
e 10 22
e 10 23
e 10 24
e 10 25
e 10 28
e 10 29
e 10 31
e 10 32
e 10 33
e 10 34
e 10 36
e 10 37
e 10 38
e 10 41
e 10 43
e 10 49
e 10 50
e 10 53
e 10 57
e 10 58
e 10 61
e 10 70
e 10 80
e 10 81
e 10 85
e 10 87
e 10 94
e 10 106
e 10 124
e 10 127
e 10 136
e 10 152
e 10 161
e 10 182
e 10 195
e 10 198
e 10 202
e 10 203
e 10 204
e 10 207
e 10 210
e 10 211
e 10 215
e 10 218
e 10 227
e 10 230
e 10 237
e 10 246
e 11 17
e 11 18
e 11 19
e 11 20
e 11 21
e 11 23
e 11 25
e 11 27
e 11 40
e 11 54
e 11 57
e 11 59
e 11 68
e 11 74
e 11 77
e 11 84
e 11 88
e 11 92
e 11 118
e 11 124
e 11 131
e 11 137
e 11 159
e 11 161
e 11 162
e 11 164
e 11 166
e 11 178
e 11 209
e 11 224
e 11 235
e 12 17
e 12 18
e 12 19
e 12 20
e 12 21
e 12 22
e 12 30
e 12 46
e 12 49
e 12 50
e 12 53
e 12 59
e 12 62
e 12 66
e 12 73
e 12 76
e 12 79
e 12 83
e 12 91
e 12 92
e 12 93
e 12 97
e 12 114
e 12 121
e 12 129
e 12 134
e 12 149
e 12 163
e 12 166
e 12 172
e 12 177
e 12 186
e 12 196
e 12 237
e 13 17
e 13 18
e 13 19
e 13 20
e 13 21
e 13 22
e 13 23
e 13 25
e 13 27
e 13 29
e 13 32
e 13 33
e 13 35
e 13 40
e 13 41
e 13 42
e 13 44
e 13 55
e 13 56
e 13 65
e 13 67
e 13 73
e 13 78
e 13 88
e 13 90
e 13 95
e 13 101
e 13 112
e 13 117
e 13 144
e 13 146
e 13 163
e 13 165
e 13 181
e 13 199
e 13 207
e 13 217
e 13 228
e 14 17
e 14 18
e 14 21
e 14 22
e 14 30
e 14 36
e 14 48
e 14 63
e 14 71
e 14 88
e 14 97
e 14 111
e 14 126
e 14 181
e 14 204
e 14 205
e 15 17
e 15 18
e 15 19
e 15 20
e 15 23
e 15 24
e 15 25
e 15 26
e 15 28
e 15 34
e 15 43
e 15 44
e 15 45
e 15 46
e 15 50
e 15 52
e 15 54
e 15 55
e 15 57
e 15 59
e 15 68
e 15 69
e 15 71
e 15 72
e 15 73
e 15 74
e 15 78
e 15 110
e 15 118
e 15 121
e 15 123
e 15 136
e 15 140
e 15 142
e 15 147
e 15 151
e 15 162
e 15 163
e 15 164
e 15 165
e 15 167
e 15 210
e 15 219
e 15 230
e 15 242
e 16 17
e 16 18
e 16 19
e 16 20
e 16 21
e 16 24
e 16 25
e 16 27
e 16 29
e 16 35
e 16 40
e 16 43
e 16 44
e 16 45
e 16 47
e 16 50
e 16 51
e 16 54
e 16 61
e 16 65
e 16 68
e 16 73
e 16 79
e 16 81
e 16 83
e 16 94
e 16 108
e 16 109
e 16 110
e 16 111
e 16 120
e 16 130
e 16 133
e 16 135
e 16 140
e 16 149
e 16 150
e 16 155
e 16 169
e 16 176
e 16 177
e 16 187
e 16 192
e 16 197
e 16 222
e 16 236
e 16 241
e 17 18
e 17 19
e 17 20
e 17 21
e 17 22
e 17 23
e 17 24
e 17 25
e 17 26
e 17 27
e 17 28
e 17 29
e 17 30
e 17 31
e 17 32
e 17 33
e 17 34
e 17 35
e 17 36
e 17 37
e 17 38
e 17 40
e 17 41
e 17 43
e 17 48
e 17 51
e 17 55
e 17 59
e 17 60
e 17 63
e 17 64
e 17 68
e 17 70
e 17 71
e 17 73
e 17 74
e 17 75
e 17 78
e 17 79
e 17 80
e 17 82
e 17 85
e 17 87
e 17 88
e 17 89
e 17 91
e 17 93
e 17 95
e 17 96
e 17 97
e 17 98
e 17 103
e 17 106
e 17 107
e 17 109
e 17 112
e 17 113
e 17 117
e 17 120
e 17 121
e 17 122
e 17 124
e 17 131
e 17 134
e 17 142
e 17 143
e 17 146
e 17 152
e 17 153
e 17 161
e 17 162
e 17 163
e 17 169
e 17 175
e 17 178
e 17 179
e 17 180
e 17 183
e 17 184
e 17 185
e 17 186
e 17 187
e 17 190
e 17 207
e 17 211
e 17 213
e 17 214
e 17 215
e 17 216
e 17 221
e 17 222
e 17 230
e 17 232
e 17 234
e 17 236
e 17 240
e 17 242
e 18 19
e 18 20
e 18 21
e 18 22
e 18 23
e 18 24
e 18 25
e 18 26
e 18 27
e 18 28
e 18 29
e 18 30
e 18 32
e 18 33
e 18 35
e 18 37
e 18 38
e 18 39
e 18 42
e 18 43
e 18 44
e 18 45
e 18 46
e 18 47
e 18 48
e 18 55
e 18 56
e 18 57
e 18 59
e 18 60
e 18 61
e 18 65
e 18 66
e 18 67
e 18 68
e 18 69
e 18 70
e 18 74
e 18 75
e 18 77
e 18 78
e 18 80
e 18 82
e 18 85
e 18 86
e 18 87
e 18 89
e 18 91
e 18 94
e 18 98
e 18 102
e 18 103
e 18 104
e 18 105
e 18 107
e 18 108
e 18 110
e 18 112
e 18 114
e 18 118
e 18 119
e 18 122
e 18 127
e 18 129
e 18 133
e 18 135
e 18 144
e 18 145
e 18 147
e 18 150
e 18 151
e 18 156
e 18 160
e 18 162
e 18 167
e 18 170
e 18 173
e 18 174
e 18 186
e 18 188
e 18 189
e 18 190
e 18 193
e 18 197
e 18 201
e 18 211
e 18 212
e 18 213
e 18 215
e 18 217
e 18 220
e 18 224
e 18 225
e 18 229
e 19 20
e 19 21
e 19 22
e 19 23
e 19 24
e 19 25
e 19 26
e 19 27
e 19 28
e 19 30
e 19 31
e 19 32
e 19 33
e 19 34
e 19 35
e 19 36
e 19 37
e 19 38
e 19 40
e 19 41
e 19 43
e 19 44
e 19 48
e 19 49
e 19 50
e 19 51
e 19 52
e 19 61
e 19 64
e 19 71
e 19 72
e 19 76
e 19 78
e 19 79
e 19 82
e 19 83
e 19 84
e 19 88
e 19 91
e 19 96
e 19 99
e 19 101
e 19 103
e 19 106
e 19 107
e 19 110
e 19 111
e 19 112
e 19 115
e 19 118
e 19 128
e 19 129
e 19 130
e 19 135
e 19 143
e 19 144
e 19 151
e 19 155
e 19 157
e 19 159
e 19 162
e 19 164
e 19 167
e 19 168
e 19 185
e 19 186
e 19 195
e 19 197
e 19 201
e 19 212
e 19 213
e 19 225
e 19 242
e 19 245
e 20 21
e 20 22
e 20 24
e 20 25
e 20 26
e 20 27
e 20 28
e 20 29
e 20 30
e 20 31
e 20 32
e 20 33
e 20 34
e 20 35
e 20 36
e 20 37
e 20 38
e 20 39
e 20 40
e 20 41
e 20 44
e 20 48
e 20 49
e 20 51
e 20 52
e 20 53
e 20 55
e 20 56
e 20 57
e 20 59
e 20 60
e 20 65
e 20 69
e 20 73
e 20 74
e 20 75
e 20 76
e 20 77
e 20 83
e 20 84
e 20 85
e 20 89
e 20 92
e 20 94
e 20 95
e 20 96
e 20 99
e 20 102
e 20 106
e 20 112
e 20 113
e 20 114
e 20 115
e 20 129
e 20 132
e 20 134
e 20 138
e 20 141
e 20 153
e 20 157
e 20 163
e 20 168
e 20 171
e 20 172
e 20 174
e 20 178
e 20 180
e 20 200
e 20 201
e 20 202
e 20 210
e 20 215
e 20 230
e 20 234
e 20 237
e 20 238
e 20 243
e 21 22
e 21 23
e 21 24
e 21 25
e 21 26
e 21 27
e 21 28
e 21 29
e 21 30
e 21 31
e 21 32
e 21 34
e 21 36
e 21 38
e 21 40
e 21 41
e 21 42
e 21 45
e 21 46
e 21 48
e 21 52
e 21 53
e 21 55
e 21 58
e 21 61
e 21 62
e 21 64
e 21 66
e 21 68
e 21 71
e 21 73
e 21 88
e 21 91
e 21 102
e 21 104
e 21 107
e 21 116
e 21 120
e 21 125
e 21 128
e 21 137
e 21 145
e 21 156
e 21 161
e 21 197
e 21 201
e 21 205
e 21 211
e 21 213
e 21 229
e 21 230
e 21 240
e 21 242
e 22 23
e 22 24
e 22 25
e 22 26
e 22 28
e 22 29
e 22 30
e 22 32
e 22 33
e 22 35
e 22 39
e 22 40
e 22 41
e 22 42
e 22 45
e 22 46
e 22 47
e 22 49
e 22 50
e 22 52
e 22 54
e 22 56
e 22 60
e 22 61
e 22 64
e 22 66
e 22 67
e 22 70
e 22 76
e 22 83
e 22 84
e 22 87
e 22 96
e 22 100
e 22 102
e 22 107
e 22 108
e 22 110
e 22 114
e 22 115
e 22 118
e 22 119
e 22 126
e 22 128
e 22 135
e 22 137
e 22 138
e 22 140
e 22 143
e 22 148
e 22 149
e 22 155
e 22 156
e 22 162
e 22 165
e 22 170
e 22 171
e 22 172
e 22 174
e 22 175
e 22 176
e 22 179
e 22 181
e 22 188
e 22 193
e 22 200
e 22 203
e 22 216
e 22 219
e 22 228
e 22 231
e 22 237
e 22 243
e 22 246
e 23 24
e 23 25
e 23 26
e 23 27
e 23 28
e 23 30
e 23 31
e 23 32
e 23 34
e 23 35
e 23 40
e 23 41
e 23 42
e 23 43
e 23 44
e 23 46
e 23 47
e 23 50
e 23 52
e 23 53
e 23 55
e 23 57
e 23 63
e 23 64
e 23 66
e 23 70
e 23 72
e 23 77
e 23 83
e 23 86
e 23 90
e 23 95
e 23 101
e 23 102
e 23 103
e 23 104
e 23 108
e 23 129
e 23 137
e 23 142
e 23 143
e 23 154
e 23 162
e 23 164
e 23 166
e 23 171
e 23 174
e 23 175
e 23 176
e 23 184
e 23 185
e 23 190
e 23 193
e 23 194
e 23 196
e 23 206
e 23 209
e 23 217
e 23 221
e 23 228
e 23 238
e 23 245
e 24 25
e 24 26
e 24 27
e 24 28
e 24 29
e 24 30
e 24 31
e 24 32
e 24 34
e 24 36
e 24 38
e 24 39
e 24 40
e 24 43
e 24 44
e 24 45
e 24 46
e 24 49
e 24 51
e 24 52
e 24 53
e 24 57
e 24 61
e 24 63
e 24 65
e 24 66
e 24 69
e 24 71
e 24 75
e 24 80
e 24 81
e 24 88
e 24 89
e 24 97
e 24 99
e 24 101
e 24 104
e 24 109
e 24 118
e 24 122
e 24 124
e 24 127
e 24 130
e 24 131
e 24 132
e 24 133
e 24 135
e 24 138
e 24 139
e 24 143
e 24 144
e 24 150
e 24 152
e 24 153
e 24 155
e 24 157
e 24 160
e 24 163
e 24 164
e 24 181
e 24 188
e 24 199
e 24 203
e 24 218
e 24 229
e 24 232
e 24 233
e 24 241
e 25 26
e 25 27
e 25 29
e 25 30
e 25 31
e 25 33
e 25 34
e 25 36
e 25 40
e 25 43
e 25 45
e 25 48
e 25 49
e 25 50
e 25 53
e 25 54
e 25 55
e 25 56
e 25 58
e 25 63
e 25 64
e 25 65
e 25 67
e 25 69
e 25 74
e 25 75
e 25 76
e 25 80
e 25 81
e 25 85
e 25 86
e 25 88
e 25 91
e 25 92
e 25 95
e 25 96
e 25 98
e 25 108
e 25 115
e 25 118
e 25 121
e 25 124
e 25 125
e 25 129
e 25 132
e 25 135
e 25 136
e 25 141
e 25 146
e 25 149
e 25 151
e 25 153
e 25 154
e 25 157
e 25 160
e 25 166
e 25 168
e 25 172
e 25 183
e 25 187
e 25 191
e 25 197
e 25 198
e 25 200
e 25 209
e 25 216
e 25 227
e 25 236
e 25 239
e 25 240
e 25 246
e 26 27
e 26 28
e 26 29
e 26 30
e 26 31
e 26 32
e 26 33
e 26 34
e 26 36
e 26 38
e 26 39
e 26 41
e 26 42
e 26 45
e 26 51
e 26 52
e 26 54
e 26 55
e 26 56
e 26 61
e 26 62
e 26 70
e 26 82
e 26 84
e 26 87
e 26 92
e 26 96
e 26 97
e 26 100
e 26 101
e 26 111
e 26 115
e 26 120
e 26 123
e 26 128
e 26 132
e 26 134
e 26 138
e 26 145
e 26 149
e 26 150
e 26 151
e 26 154
e 26 155
e 26 159
e 26 160
e 26 166
e 26 173
e 26 189
e 26 194
e 26 197
e 26 202
e 26 203
e 26 217
e 26 223
e 26 232
e 27 28
e 27 29
e 27 31
e 27 32
e 27 33
e 27 34
e 27 36
e 27 39
e 27 40
e 27 41
e 27 42
e 27 43
e 27 48
e 27 49
e 27 50
e 27 52
e 27 53
e 27 66
e 27 67
e 27 69
e 27 71
e 27 85
e 27 86
e 27 90
e 27 91
e 27 102
e 27 104
e 27 117
e 27 119
e 27 130
e 27 141
e 27 143
e 27 145
e 27 148
e 27 154
e 27 160
e 27 164
e 27 168
e 27 190
e 27 191
e 27 192
e 27 217
e 27 228
e 27 236
e 27 238
e 27 239
e 28 29
e 28 30
e 28 31
e 28 32
e 28 34
e 28 35
e 28 36
e 28 37
e 28 38
e 28 39
e 28 41
e 28 42
e 28 44
e 28 45
e 28 46
e 28 48
e 28 49
e 28 54
e 28 55
e 28 56
e 28 59
e 28 65
e 28 67
e 28 68
e 28 69
e 28 73
e 28 74
e 28 75
e 28 76
e 28 81
e 28 82
e 28 86
e 28 88
e 28 92
e 28 98
e 28 99
e 28 100
e 28 102
e 28 104
e 28 105
e 28 106
e 28 116
e 28 118
e 28 120
e 28 124
e 28 125
e 28 126
e 28 127
e 28 128
e 28 129
e 28 134
e 28 136
e 28 138
e 28 145
e 28 148
e 28 150
e 28 153
e 28 158
e 28 161
e 28 162
e 28 170
e 28 174
e 28 176
e 28 182
e 28 196
e 28 200
e 28 202
e 28 203
e 28 204
e 28 208
e 28 210
e 28 220
e 28 226
e 28 235
e 29 30
e 29 31
e 29 32
e 29 33
e 29 36
e 29 37
e 29 39
e 29 50
e 29 51
e 29 53
e 29 57
e 29 62
e 29 64
e 29 68
e 29 78
e 29 86
e 29 93
e 29 94
e 29 98
e 29 101
e 29 103
e 29 107
e 29 111
e 29 127
e 29 140
e 29 145
e 29 148
e 29 161
e 29 172
e 29 174
e 29 177
e 29 179
e 29 182
e 29 192
e 29 193
e 29 195
e 29 196
e 29 214
e 29 216
e 29 241
e 29 244
e 30 32
e 30 33
e 30 35
e 30 36
e 30 37
e 30 38
e 30 42
e 30 45
e 30 47
e 30 50
e 30 54
e 30 56
e 30 58
e 30 59
e 30 64
e 30 69
e 30 72
e 30 75
e 30 82
e 30 87
e 30 97
e 30 98
e 30 100
e 30 101
e 30 102
e 30 109
e 30 114
e 30 122
e 30 126
e 30 130
e 30 133
e 30 136
e 30 137
e 30 139
e 30 142
e 30 148
e 30 149
e 30 156
e 30 169
e 30 181
e 30 182
e 30 190
e 30 194
e 30 214
e 30 232
e 30 239
e 31 33
e 31 35
e 31 37
e 31 38
e 31 42
e 31 47
e 31 52
e 31 58
e 31 60
e 31 62
e 31 63
e 31 67
e 31 70
e 31 71
e 31 87
e 31 89
e 31 92
e 31 108
e 31 109
e 31 110
e 31 115
e 31 116
e 31 120
e 31 161
e 31 166
e 31 170
e 31 177
e 31 186
e 31 187
e 31 193
e 31 195
e 31 196
e 31 202
e 31 213
e 31 241
e 31 243
e 31 244
e 32 33
e 32 35
e 32 37
e 32 39
e 32 41
e 32 42
e 32 43
e 32 44
e 32 47
e 32 48
e 32 49
e 32 51
e 32 52
e 32 53
e 32 57
e 32 58
e 32 62
e 32 63
e 32 71
e 32 72
e 32 73
e 32 75
e 32 77
e 32 82
e 32 84
e 32 86
e 32 89
e 32 92
e 32 101
e 32 105
e 32 110
e 32 114
e 32 115
e 32 120
e 32 123
e 32 131
e 32 133
e 32 138
e 32 142
e 32 146
e 32 149
e 32 150
e 32 166
e 32 169
e 32 178
e 32 181
e 32 186
e 32 188
e 32 190
e 32 197
e 32 200
e 32 206
e 32 207
e 32 208
e 32 209
e 32 219
e 32 225
e 32 226
e 32 232
e 32 239
e 32 243
e 32 247
e 33 35
e 33 37
e 33 38
e 33 40
e 33 41
e 33 44
e 33 46
e 33 48
e 33 52
e 33 53
e 33 54
e 33 55
e 33 56
e 33 62
e 33 68
e 33 72
e 33 84
e 33 85
e 33 86
e 33 90
e 33 92
e 33 93
e 33 107
e 33 113
e 33 115
e 33 118
e 33 124
e 33 130
e 33 131
e 33 138
e 33 145
e 33 148
e 33 158
e 33 159
e 33 160
e 33 163
e 33 167
e 33 180
e 33 191
e 33 194
e 33 204
e 33 221
e 33 222
e 33 233
e 33 235
e 33 238
e 33 244
e 34 37
e 34 40
e 34 44
e 34 45
e 34 48
e 34 49
e 34 55
e 34 70
e 34 78
e 34 80
e 34 86
e 34 99
e 34 116
e 34 128
e 34 129
e 34 135
e 34 137
e 34 140
e 34 146
e 34 159
e 34 167
e 34 179
e 34 182
e 34 185
e 34 192
e 34 195
e 34 198
e 34 201
e 34 206
e 34 229
e 34 233
e 34 246
e 35 36
e 35 38
e 35 39
e 35 41
e 35 44
e 35 45
e 35 47
e 35 49
e 35 51
e 35 52
e 35 56
e 35 57
e 35 58
e 35 60
e 35 62
e 35 65
e 35 67
e 35 72
e 35 75
e 35 77
e 35 79
e 35 87
e 35 89
e 35 93
e 35 101
e 35 121
e 35 139
e 35 142
e 35 143
e 35 161
e 35 170
e 35 173
e 35 177
e 35 203
e 35 220
e 35 228
e 35 234
e 35 242
e 35 244
e 36 37
e 36 39
e 36 45
e 36 46
e 36 50
e 36 51
e 36 54
e 36 55
e 36 59
e 36 62
e 36 64
e 36 67
e 36 77
e 36 79
e 36 80
e 36 83
e 36 90
e 36 100
e 36 123
e 36 124
e 36 127
e 36 128
e 36 131
e 36 133
e 36 152
e 36 159
e 36 161
e 36 171
e 36 173
e 36 179
e 36 190
e 36 195
e 36 196
e 36 208
e 36 209
e 36 214
e 36 216
e 36 223
e 36 229
e 36 246
e 37 39
e 37 40
e 37 42
e 37 43
e 37 46
e 37 52
e 37 53
e 37 57
e 37 60
e 37 64
e 37 72
e 37 73
e 37 77
e 37 79
e 37 81
e 37 97
e 37 117
e 37 122
e 37 124
e 37 132
e 37 137
e 37 139
e 37 141
e 37 153
e 37 155
e 37 158
e 37 172
e 37 188
e 37 189
e 37 203
e 37 221
e 37 239
e 38 39
e 38 44
e 38 46
e 38 47
e 38 49
e 38 51
e 38 52
e 38 56
e 38 60
e 38 62
e 38 68
e 38 69
e 38 73
e 38 84
e 38 89
e 38 95
e 38 97
e 38 100
e 38 109
e 38 112
e 38 116
e 38 129
e 38 141
e 38 148
e 38 154
e 38 161
e 38 162
e 38 166
e 38 169
e 38 173
e 38 181
e 38 186
e 38 193
e 38 206
e 38 228
e 38 232
e 38 236
e 39 40
e 39 49
e 39 59
e 39 60
e 39 63
e 39 65
e 39 77
e 39 80
e 39 86
e 39 87
e 39 92
e 39 95
e 39 96
e 39 102
e 39 106
e 39 107
e 39 108
e 39 117
e 39 126
e 39 128
e 39 131
e 39 133
e 39 149
e 39 156
e 39 157
e 39 184
e 39 186
e 39 191
e 39 195
e 39 197
e 39 203
e 39 206
e 39 218
e 39 234
e 39 235
e 39 242
e 40 42
e 40 44
e 40 47
e 40 48
e 40 53
e 40 60
e 40 68
e 40 71
e 40 74
e 40 77
e 40 82
e 40 83
e 40 85
e 40 89
e 40 91
e 40 92
e 40 93
e 40 94
e 40 100
e 40 105
e 40 113
e 40 125
e 40 127
e 40 130
e 40 137
e 40 147
e 40 151
e 40 153
e 40 154
e 40 170
e 40 173
e 40 180
e 40 203
e 40 210
e 40 216
e 40 217
e 40 222
e 40 229
e 40 233
e 40 236
e 41 43
e 41 50
e 41 53
e 41 54
e 41 57
e 41 59
e 41 79
e 41 83
e 41 90
e 41 92
e 41 98
e 41 107
e 41 111
e 41 116
e 41 117
e 41 118
e 41 122
e 41 125
e 41 132
e 41 135
e 41 147
e 41 159
e 41 165
e 41 188
e 41 226
e 41 230
e 41 235
e 41 239
e 41 244
e 41 245
e 42 47
e 42 51
e 42 56
e 42 58
e 42 64
e 42 65
e 42 66
e 42 68
e 42 74
e 42 86
e 42 87
e 42 97
e 42 116
e 42 119
e 42 123
e 42 137
e 42 138
e 42 139
e 42 176
e 42 196
e 42 203
e 42 205
e 42 212
e 42 215
e 42 247
e 43 45
e 43 48
e 43 65
e 43 66
e 43 67
e 43 74
e 43 76
e 43 79
e 43 82
e 43 85
e 43 93
e 43 94
e 43 99
e 43 103
e 43 106
e 43 107
e 43 121
e 43 124
e 43 132
e 43 133
e 43 136
e 43 140
e 43 141
e 43 145
e 43 159
e 43 168
e 43 174
e 43 179
e 43 184
e 43 197
e 43 207
e 43 223
e 43 224
e 43 246
e 44 47
e 44 51
e 44 54
e 44 55
e 44 58
e 44 59
e 44 61
e 44 66
e 44 68
e 44 92
e 44 96
e 44 97
e 44 105
e 44 120
e 44 152
e 44 169
e 44 180
e 44 217
e 44 227
e 44 228
e 44 246
e 45 47
e 45 51
e 45 61
e 45 62
e 45 64
e 45 67
e 45 77
e 45 81
e 45 83
e 45 89
e 45 90
e 45 91
e 45 94
e 45 95
e 45 98
e 45 99
e 45 100
e 45 101
e 45 103
e 45 105
e 45 112
e 45 124
e 45 129
e 45 136
e 45 145
e 45 149
e 45 153
e 45 161
e 45 165
e 45 170
e 45 176
e 45 179
e 45 182
e 45 199
e 45 228
e 45 230
e 45 236
e 45 242
e 45 243
e 45 245
e 45 247
e 46 49
e 46 58
e 46 60
e 46 63
e 46 64
e 46 78
e 46 79
e 46 82
e 46 86
e 46 96
e 46 105
e 46 109
e 46 111
e 46 122
e 46 127
e 46 149
e 46 154
e 46 158
e 46 173
e 46 184
e 46 214
e 46 245
e 46 247
e 47 50
e 47 54
e 47 55
e 47 57
e 47 99
e 47 104
e 47 109
e 47 117
e 47 122
e 47 125
e 47 128
e 47 144
e 47 146
e 47 170
e 47 187
e 47 199
e 47 200
e 47 228
e 47 230
e 47 237
e 48 50
e 48 57
e 48 66
e 48 70
e 48 71
e 48 76
e 48 77
e 48 83
e 48 89
e 48 93
e 48 98
e 48 101
e 48 102
e 48 106
e 48 109
e 48 120
e 48 129
e 48 130
e 48 144
e 48 155
e 48 156
e 48 182
e 48 187
e 48 207
e 48 236
e 48 238
e 48 241
e 48 243
e 49 56
e 49 58
e 49 62
e 49 65
e 49 69
e 49 72
e 49 74
e 49 79
e 49 80
e 49 83
e 49 91
e 49 93
e 49 96
e 49 98
e 49 108
e 49 120
e 49 123
e 49 128
e 49 130
e 49 136
e 49 147
e 49 148
e 49 155
e 49 161
e 49 162
e 49 163
e 49 181
e 49 205
e 49 206
e 49 221
e 50 51
e 50 56
e 50 59
e 50 60
e 50 71
e 50 77
e 50 78
e 50 83
e 50 89
e 50 93
e 50 94
e 50 98
e 50 99
e 50 108
e 50 121
e 50 126
e 50 129
e 50 143
e 50 148
e 50 150
e 50 151
e 50 154
e 50 156
e 50 168
e 50 169
e 50 175
e 50 183
e 50 188
e 50 214
e 50 215
e 50 221
e 50 237
e 51 73
e 51 76
e 51 81
e 51 110
e 51 138
e 51 140
e 51 142
e 51 143
e 51 145
e 51 154
e 51 167
e 51 168
e 51 188
e 51 198
e 51 208
e 51 215
e 51 218
e 52 53
e 52 57
e 52 58
e 52 59
e 52 63
e 52 64
e 52 69
e 52 72
e 52 73
e 52 74
e 52 93
e 52 94
e 52 96
e 52 108
e 52 115
e 52 116
e 52 117
e 52 126
e 52 151
e 52 152
e 52 157
e 52 165
e 52 169
e 52 175
e 52 189
e 52 196
e 52 202
e 52 212
e 52 218
e 52 227
e 52 237
e 52 247
e 53 54
e 53 55
e 53 62
e 53 66
e 53 78
e 53 81
e 53 89
e 53 91
e 53 104
e 53 108
e 53 110
e 53 120
e 53 124
e 53 129
e 53 135
e 53 138
e 53 140
e 53 144
e 53 148
e 53 159
e 53 174
e 53 177
e 53 180
e 53 191
e 53 192
e 53 197
e 53 208
e 53 210
e 53 221
e 53 223
e 53 226
e 53 227
e 53 235
e 53 240
e 54 58
e 54 61
e 54 62
e 54 63
e 54 69
e 54 70
e 54 78
e 54 99
e 54 100
e 54 110
e 54 111
e 54 115
e 54 138
e 54 139
e 54 142
e 54 164
e 54 173
e 54 178
e 54 191
e 54 195
e 54 208
e 54 215
e 54 224
e 55 59
e 55 63
e 55 65
e 55 99
e 55 104
e 55 105
e 55 108
e 55 112
e 55 120
e 55 123
e 55 126
e 55 133
e 55 138
e 55 139
e 55 143
e 55 158
e 55 189
e 55 202
e 55 219
e 55 229
e 55 234
e 55 240
e 56 61
e 56 66
e 56 71
e 56 100
e 56 105
e 56 118
e 56 154
e 56 177
e 56 182
e 56 195
e 56 197
e 56 203
e 56 205
e 56 206
e 56 212
e 56 216
e 56 240
e 56 241
e 56 247
e 57 59
e 57 60
e 57 63
e 57 64
e 57 67
e 57 69
e 57 72
e 57 75
e 57 76
e 57 77
e 57 80
e 57 81
e 57 84
e 57 85
e 57 86
e 57 87
e 57 88
e 57 90
e 57 91
e 57 92
e 57 94
e 57 95
e 57 99
e 57 101
e 57 105
e 57 114
e 57 122
e 57 125
e 57 128
e 57 133
e 57 137
e 57 138
e 57 141
e 57 145
e 57 151
e 57 153
e 57 157
e 57 166
e 57 171
e 57 173
e 57 179
e 57 199
e 57 206
e 57 207
e 57 210
e 57 213
e 57 219
e 57 221
e 57 231
e 57 235
e 57 246
e 58 60
e 58 61
e 58 70
e 58 84
e 58 88
e 58 108
e 58 113
e 58 122
e 58 126
e 58 148
e 58 155
e 58 156
e 58 157
e 58 167
e 58 178
e 58 185
e 58 202
e 59 61
e 59 75
e 59 81
e 59 93
e 59 101
e 59 103
e 59 107
e 59 111
e 59 119
e 59 125
e 59 130
e 59 134
e 59 157
e 59 162
e 59 176
e 59 188
e 59 205
e 59 223
e 59 230
e 59 231
e 60 62
e 60 68
e 60 70
e 60 74
e 60 91
e 60 94
e 60 103
e 60 106
e 60 117
e 60 125
e 60 126
e 60 127
e 60 154
e 60 171
e 60 177
e 60 183
e 60 184
e 60 189
e 60 196
e 60 198
e 60 210
e 60 211
e 60 212
e 60 214
e 60 222
e 60 233
e 60 239
e 60 240
e 61 63
e 61 65
e 61 67
e 61 72
e 61 74
e 61 82
e 61 103
e 61 118
e 61 121
e 61 136
e 61 139
e 61 140
e 61 163
e 61 169
e 61 179
e 61 180
e 61 190
e 61 191
e 61 200
e 61 204
e 61 209
e 61 211
e 61 227
e 61 232
e 61 237
e 61 245
e 62 65
e 62 67
e 62 71
e 62 73
e 62 80
e 62 81
e 62 85
e 62 88
e 62 98
e 62 109
e 62 111
e 62 114
e 62 144
e 62 146
e 62 165
e 62 171
e 62 201
e 62 208
e 62 230
e 62 240
e 63 75
e 63 76
e 63 84
e 63 96
e 63 102
e 63 106
e 63 121
e 63 125
e 63 151
e 63 175
e 63 224
e 64 70
e 64 92
e 64 98
e 64 104
e 64 106
e 64 117
e 64 123
e 64 125
e 64 147
e 64 157
e 64 160
e 64 193
e 64 219
e 64 229
e 64 240
e 64 243
e 65 69
e 65 70
e 65 79
e 65 80
e 65 83
e 65 84
e 65 94
e 65 110
e 65 134
e 65 147
e 65 150
e 65 187
e 65 202
e 65 207
e 65 215
e 65 222
e 66 67
e 66 73
e 66 84
e 66 85
e 66 93
e 66 95
e 66 97
e 66 106
e 66 113
e 66 124
e 66 134
e 66 139
e 66 147
e 66 151
e 66 166
e 66 187
e 66 209
e 66 210
e 66 215
e 66 239
e 67 69
e 67 72
e 67 78
e 67 84
e 67 85
e 67 90
e 67 95
e 67 97
e 67 100
e 67 101
e 67 105
e 67 107
e 67 114
e 67 117
e 67 119
e 67 139
e 67 144
e 67 149
e 67 168
e 67 173
e 67 174
e 67 175
e 67 181
e 67 184
e 67 186
e 67 213
e 67 215
e 67 216
e 67 224
e 67 246
e 68 69
e 68 71
e 68 76
e 68 80
e 68 90
e 68 95
e 68 100
e 68 129
e 68 139
e 68 141
e 68 156
e 68 157
e 68 158
e 68 175
e 68 185
e 68 189
e 68 209
e 68 219
e 69 78
e 69 86
e 69 90
e 69 105
e 69 110
e 69 113
e 69 116
e 69 126
e 69 134
e 69 152
e 69 161
e 69 172
e 69 183
e 69 193
e 69 194
e 69 211
e 69 217
e 69 222
e 69 246
e 70 75
e 70 76
e 70 77
e 70 87
e 70 96
e 70 104
e 70 105
e 70 112
e 70 125
e 70 136
e 70 146
e 70 158
e 70 164
e 70 183
e 70 193
e 70 206
e 70 207
e 70 210
e 70 228
e 70 239
e 70 245
e 71 97
e 71 113
e 71 145
e 71 151
e 71 168
e 71 171
e 71 183
e 71 185
e 71 199
e 71 210
e 72 99
e 72 103
e 72 111
e 72 124
e 72 143
e 72 148
e 72 154
e 72 173
e 72 175
e 72 178
e 72 185
e 72 192
e 72 214
e 72 228
e 73 78
e 73 79
e 73 84
e 73 91
e 73 96
e 73 101
e 73 102
e 73 104
e 73 113
e 73 121
e 73 135
e 73 139
e 73 146
e 73 150
e 73 153
e 73 160
e 73 178
e 73 189
e 73 194
e 73 201
e 73 204
e 73 214
e 73 222
e 73 224
e 73 237
e 74 82
e 74 83
e 74 87
e 74 88
e 74 100
e 74 102
e 74 105
e 74 118
e 74 120
e 74 123
e 74 124
e 74 128
e 74 137
e 74 140
e 74 150
e 74 160
e 74 199
e 74 204
e 74 205
e 74 213
e 74 216
e 75 85
e 75 109
e 75 121
e 75 131
e 75 138
e 75 141
e 75 150
e 75 153
e 75 164
e 75 183
e 75 190
e 75 213
e 75 227
e 76 81
e 76 82
e 76 88
e 76 90
e 76 94
e 76 100
e 76 107
e 76 115
e 76 122
e 76 128
e 76 158
e 76 184
e 76 185
e 76 186
e 76 189
e 76 199
e 76 201
e 76 208
e 76 212
e 76 225
e 77 79
e 77 80
e 77 91
e 77 97
e 77 104
e 77 105
e 77 106
e 77 119
e 77 127
e 77 131
e 77 134
e 77 146
e 77 147
e 77 153
e 77 163
e 77 176
e 77 199
e 77 233
e 78 80
e 78 91
e 78 102
e 78 132
e 78 139
e 78 147
e 78 152
e 78 154
e 78 156
e 78 157
e 78 166
e 78 171
e 78 246
e 79 92
e 79 100
e 79 103
e 79 107
e 79 109
e 79 112
e 79 113
e 79 114
e 79 137
e 79 140
e 79 143
e 79 155
e 79 179
e 79 181
e 79 194
e 79 196
e 79 211
e 79 214
e 79 225
e 80 82
e 80 89
e 80 93
e 80 97
e 80 110
e 80 126
e 80 144
e 80 152
e 80 160
e 80 178
e 80 192
e 80 193
e 80 206
e 80 220
e 80 225
e 80 230
e 80 241
e 81 113
e 81 147
e 81 159
e 81 166
e 81 172
e 81 184
e 81 209
e 81 228
e 81 243
e 81 247
e 82 89
e 82 95
e 82 127
e 82 128
e 82 140
e 82 141
e 82 147
e 82 188
e 82 233
e 83 85
e 83 86
e 83 87
e 83 94
e 83 95
e 83 104
e 83 106
e 83 109
e 83 111
e 83 112
e 83 122
e 83 153
e 83 158
e 83 165
e 83 167
e 83 170
e 83 177
e 83 198
e 83 211
e 83 214
e 84 102
e 84 103
e 84 113
e 84 119
e 84 131
e 84 133
e 84 141
e 84 142
e 84 151
e 84 152
e 84 153
e 84 158
e 84 178
e 84 184
e 84 215
e 84 224
e 84 242
e 84 243
e 85 88
e 85 102
e 85 106
e 85 116
e 85 129
e 85 130
e 85 131
e 85 133
e 85 152
e 85 162
e 85 164
e 85 165
e 85 168
e 85 172
e 85 188
e 85 192
e 85 244
e 86 87
e 86 96
e 86 110
e 86 113
e 86 115
e 86 124
e 86 128
e 86 142
e 86 144
e 86 152
e 86 168
e 86 170
e 86 174
e 86 177
e 86 180
e 86 214
e 86 232
e 87 109
e 87 130
e 87 140
e 87 220
e 87 229
e 88 90
e 88 109
e 88 111
e 88 113
e 88 123
e 88 144
e 88 160
e 88 172
e 88 211
e 88 229
e 89 104
e 89 127
e 89 146
e 89 154
e 89 158
e 89 168
e 89 182
e 89 217
e 89 237
e 90 97
e 90 111
e 90 127
e 90 141
e 90 142
e 90 155
e 90 156
e 90 181
e 90 189
e 90 199
e 90 204
e 90 205
e 90 212
e 90 218
e 90 234
e 90 235
e 90 240
e 91 96
e 91 106
e 91 115
e 91 132
e 91 136
e 91 141
e 91 185
e 91 206
e 91 218
e 91 230
e 92 95
e 92 112
e 92 117
e 92 122
e 92 169
e 92 171
e 92 179
e 92 187
e 92 200
e 92 207
e 92 210
e 92 216
e 93 98
e 93 103
e 93 108
e 93 140
e 93 149
e 93 155
e 93 190
e 93 204
e 93 211
e 93 223
e 94 98
e 94 99
e 94 112
e 94 116
e 94 119
e 94 143
e 94 164
e 94 166
e 94 175
e 94 207
e 94 208
e 94 217
e 94 219
e 95 107
e 95 127
e 95 134
e 95 159
e 95 165
e 95 220
e 95 226
e 95 238
e 95 240
e 95 242
e 96 99
e 96 109
e 96 119
e 96 123
e 96 129
e 96 132
e 96 156
e 96 161
e 96 165
e 96 171
e 96 174
e 96 178
e 96 192
e 96 193
e 97 99
e 97 111
e 97 118
e 97 159
e 97 164
e 97 169
e 97 182
e 97 201
e 97 205
e 97 219
e 97 245
e 97 247
e 98 103
e 98 114
e 98 123
e 98 138
e 98 141
e 98 167
e 98 168
e 98 198
e 98 208
e 99 130
e 99 133
e 99 135
e 99 136
e 99 144
e 99 149
e 99 153
e 99 160
e 99 177
e 99 189
e 99 212
e 100 119
e 100 163
e 100 169
e 100 175
e 100 187
e 100 202
e 100 208
e 100 209
e 100 224
e 101 104
e 101 160
e 101 164
e 101 212
e 101 218
e 102 114
e 102 123
e 102 157
e 102 171
e 102 206
e 102 213
e 102 214
e 102 227
e 102 231
e 102 233
e 102 243
e 103 107
e 103 110
e 103 116
e 103 123
e 103 135
e 103 136
e 103 160
e 103 164
e 103 172
e 103 173
e 103 174
e 103 178
e 103 180
e 103 182
e 103 191
e 103 198
e 103 204
e 103 208
e 103 212
e 103 227
e 104 110
e 104 113
e 104 119
e 104 121
e 104 123
e 104 130
e 104 135
e 104 142
e 104 143
e 104 149
e 104 150
e 104 170
e 104 183
e 104 206
e 104 213
e 104 221
e 104 236
e 105 131
e 105 134
e 105 154
e 105 176
e 105 179
e 105 183
e 105 191
e 105 201
e 105 213
e 105 223
e 105 233
e 105 234
e 105 239
e 105 246
e 106 114
e 106 157
e 106 158
e 106 163
e 106 209
e 106 234
e 106 241
e 106 242
e 107 112
e 107 117
e 107 139
e 107 142
e 107 164
e 107 167
e 107 175
e 107 177
e 107 179
e 107 198
e 107 202
e 107 223
e 107 232
e 107 233
e 108 115
e 108 118
e 108 145
e 108 166
e 108 175
e 108 194
e 108 221
e 108 222
e 108 236
e 109 118
e 109 121
e 109 138
e 109 221
e 109 237
e 110 114
e 110 116
e 110 170
e 110 186
e 110 190
e 110 210
e 110 214
e 111 114
e 111 115
e 111 131
e 111 146
e 111 156
e 111 159
e 111 175
e 111 176
e 111 188
e 111 197
e 111 234
e 112 117
e 112 172
e 112 183
e 112 201
e 112 225
e 112 245
e 113 120
e 113 131
e 113 146
e 113 155
e 113 162
e 113 167
e 113 216
e 113 220
e 113 238
e 114 116
e 114 131
e 114 190
e 114 195
e 114 204
e 114 205
e 114 206
e 114 226
e 114 241
e 115 119
e 115 125
e 115 135
e 115 140
e 115 141
e 115 151
e 115 165
e 115 203
e 115 207
e 115 220
e 115 221
e 115 231
e 116 123
e 116 143
e 116 144
e 116 147
e 116 153
e 116 156
e 116 170
e 116 211
e 116 224
e 116 230
e 116 233
e 117 125
e 117 142
e 117 152
e 117 211
e 117 212
e 117 216
e 117 227
e 117 245
e 118 135
e 118 136
e 118 137
e 118 169
e 118 176
e 118 177
e 118 232
e 118 243
e 118 244
e 119 121
e 119 126
e 119 135
e 119 147
e 119 157
e 119 163
e 119 165
e 119 171
e 119 184
e 119 192
e 119 198
e 119 218
e 119 235
e 119 237
e 119 241
e 120 122
e 120 141
e 120 165
e 120 172
e 120 188
e 120 199
e 120 223
e 120 229
e 121 211
e 121 241
e 121 242
e 122 131
e 122 145
e 122 176
e 122 178
e 122 234
e 122 235
e 123 126
e 123 132
e 123 137
e 123 167
e 123 174
e 123 180
e 123 197
e 123 218
e 123 229
e 123 243
e 123 247
e 124 146
e 124 155
e 124 177
e 124 178
e 124 186
e 124 212
e 124 225
e 124 245
e 125 127
e 125 133
e 125 171
e 125 191
e 125 199
e 125 205
e 125 226
e 125 235
e 125 237
e 126 132
e 126 149
e 126 199
e 126 220
e 127 146
e 127 169
e 127 183
e 127 185
e 127 186
e 127 204
e 127 223
e 127 233
e 127 242
e 128 147
e 128 187
e 128 214
e 128 234
e 129 152
e 129 175
e 130 132
e 130 133
e 130 136
e 130 194
e 130 195
e 130 204
e 130 223
e 130 244
e 131 143
e 131 150
e 131 161
e 131 175
e 131 194
e 132 137
e 132 201
e 132 224
e 132 225
e 133 159
e 133 183
e 133 184
e 133 185
e 133 192
e 133 196
e 133 198
e 133 200
e 133 205
e 133 209
e 133 220
e 133 228
e 133 239
e 133 242
e 133 243
e 133 247
e 134 158
e 134 169
e 134 184
e 134 203
e 134 206
e 134 221
e 135 136
e 135 139
e 135 142
e 135 150
e 135 194
e 135 208
e 135 209
e 135 224
e 135 244
e 136 137
e 136 144
e 136 145
e 136 148
e 136 235
e 137 139
e 137 145
e 137 162
e 137 167
e 137 168
e 137 176
e 137 180
e 137 196
e 137 215
e 137 221
e 137 235
e 138 148
e 138 149
e 138 158
e 138 160
e 138 172
e 138 186
e 138 219
e 138 224
e 138 247
e 139 160
e 139 168
e 139 190
e 139 218
e 139 222
e 139 232
e 139 245
e 140 178
e 140 180
e 140 231
e 140 235
e 140 246
e 141 152
e 141 181
e 141 189
e 141 191
e 141 195
e 141 218
e 141 226
e 141 233
e 142 156
e 142 158
e 142 215
e 142 220
e 142 230
e 143 150
e 143 154
e 143 155
e 143 163
e 143 180
e 143 223
e 143 233
e 143 240
e 144 181
e 144 191
e 144 206
e 145 176
e 145 182
e 145 190
e 145 195
e 145 226
e 145 227
e 145 238
e 146 179
e 146 218
e 146 225
e 146 236
e 146 238
e 147 165
e 147 207
e 147 213
e 147 217
e 147 226
e 147 231
e 147 244
e 148 167
e 148 173
e 148 177
e 148 190
e 149 159
e 149 181
e 149 182
e 149 189
e 149 198
e 149 201
e 149 244
e 150 189
e 150 202
e 150 235
e 151 166
e 151 225
e 151 227
e 151 232
e 151 244
e 152 180
e 152 201
e 153 173
e 153 187
e 153 226
e 154 186
e 154 244
e 155 177
e 155 187
e 155 192
e 155 201
e 155 229
e 155 232
e 156 181
e 156 187
e 156 213
e 156 247
e 157 196
e 157 210
e 158 161
e 158 168
e 158 182
e 158 185
e 158 190
e 158 194
e 158 220
e 158 222
e 158 241
e 159 208
e 159 222
e 160 182
e 160 184
e 160 196
e 160 225
e 160 238
e 161 171
e 161 174
e 161 183
e 161 197
e 161 202
e 161 229
e 161 242
e 162 174
e 162 179
e 162 184
e 162 193
e 162 195
e 162 203
e 162 211
e 162 220
e 162 240
e 163 173
e 163 187
e 163 231
e 163 245
e 164 166
e 164 193
e 164 200
e 164 225
e 164 232
e 165 200
e 166 167
e 166 173
e 166 176
e 166 199
e 166 203
e 166 204
e 166 225
e 166 238
e 167 194
e 167 205
e 167 231
e 168 170
e 168 185
e 168 188
e 168 196
e 169 176
e 169 213
e 169 224
e 169 239
e 170 178
e 170 194
e 171 203
e 171 207
e 171 220
e 171 241
e 172 193
e 172 207
e 173 227
e 174 189
e 174 215
e 175 200
e 175 204
e 175 209
e 175 216
e 175 226
e 176 193
e 176 219
e 176 226
e 177 194
e 177 209
e 177 210
e 177 222
e 177 236
e 177 238
e 178 183
e 178 195
e 178 198
e 178 202
e 179 218
e 179 239
e 180 205
e 180 228
e 181 191
e 181 192
e 182 189
e 182 221
e 183 185
e 184 191
e 184 198
e 184 205
e 184 212
e 184 241
e 185 187
e 185 188
e 185 192
e 185 193
e 186 202
e 187 191
e 187 197
e 187 204
e 187 215
e 187 217
e 187 218
e 188 200
e 188 217
e 188 231
e 188 236
e 188 242
e 190 225
e 191 198
e 191 223
e 191 241
e 191 244
e 192 242
e 193 200
e 193 222
e 194 199
e 194 224
e 195 197
e 195 232
e 195 246
e 196 230
e 196 246
e 197 234
e 198 205
e 199 217
e 199 234
e 200 216
e 201 220
e 202 219
e 202 220
e 202 229
e 202 233
e 202 239
e 203 214
e 204 222
e 204 226
e 204 233
e 205 223
e 205 238
e 206 210
e 206 231
e 206 243
e 206 247
e 207 223
e 207 240
e 208 216
e 208 237
e 210 212
e 210 238
e 211 216
e 212 245
e 214 219
e 214 221
e 214 225
e 215 226
e 219 227
e 219 243
e 220 222
e 220 229
e 221 231
e 221 236
e 222 231
e 223 224
e 223 234
e 224 235
e 225 236
e 226 231
e 228 230
e 228 234
e 228 239
e 228 241
e 228 244
e 228 247
e 229 247
e 239 246
e 242 243
